27
Properties=species:S:1:pos:R:3 pbc="F F F"
N        0.12640000      -0.46800000      -0.97620000
N        1.31460000       0.07910000      -1.27920000
N       -4.27150000      -0.50590000       0.45520000
N       -0.85060000       1.53410000      -0.10690000
N       -3.15850000       1.63290000       0.67660000
N       -4.01970000      -1.75780000       0.02960000
C       -2.18120000      -0.42090000      -0.20680000
C       -0.96840000       0.22320000      -0.42770000
C       -3.20530000       0.33510000       0.33620000
C       -2.74530000      -1.69960000      -0.37230000
C        2.48600000      -0.05250000      -0.51580000
C        3.68020000       0.50860000      -0.96830000
C        2.45530000      -0.74460000       0.69470000
C       -1.93750000       2.14870000       0.41780000
C        4.84380000       0.37760000      -0.21020000
C        3.61880000      -0.87560000       1.45290000
C        4.81300000      -0.31450000       1.00040000
H       -0.00570000      -1.44610000      -1.20860000
H       -2.28580000      -2.59430000      -0.76800000
H        1.38070000       0.58550000      -2.15520000
H       -5.19410000      -0.29610000       0.81530000
H        3.71770000       1.05050000      -1.90990000
H        1.54130000      -1.19300000       1.07470000
H       -1.80860000       3.19750000       0.66300000
H        5.77360000       0.81450000      -0.56250000
H        3.59530000      -1.41430000       2.39570000
H        5.71890000      -0.41660000       1.59080000
