44
Properties=species:S:1:pos:R:3 pbc="F F F"
O       -8.27500000       0.65050000       0.06720000
O       -7.26510000      -1.38040000      -0.02930000
C        1.75630000       0.45320000       0.07870000
C        0.47000000      -0.37430000       0.02600000
C        2.99590000      -0.44390000       0.05190000
C       -0.76750000       0.52530000       0.02060000
C        4.28060000       0.38670000       0.07230000
C       -2.08760000      -0.25180000       0.00100000
C        5.55480000      -0.46300000       0.07870000
C       -3.36050000       0.59590000      -0.09030000
C        6.87380000       0.31430000       0.01300000
C       -4.64820000      -0.23360000      -0.04710000
C        8.14310000      -0.53890000      -0.03610000
C       -5.90370000       0.64030000      -0.04810000
C        9.42000000       0.27950000      -0.14640000
C       -7.18700000      -0.15990000      -0.01200000
H        1.76380000       1.06510000       0.98870000
H        1.78400000       1.14160000      -0.77470000
H        0.46930000      -1.00120000      -0.87380000
H        0.43010000      -1.04800000       0.89030000
H        2.98110000      -1.11830000       0.91650000
H        2.98060000      -1.07030000      -0.84800000
H       -0.75210000       1.17480000       0.90440000
H       -0.73010000       1.18380000      -0.85610000
H        4.28350000       1.03590000       0.95650000
H        4.29670000       1.04620000      -0.80430000
H       -2.07390000      -0.94760000      -0.84770000
H       -2.13940000      -0.87070000       0.90590000
H        5.51880000      -1.15280000      -0.77410000
H        5.55950000      -1.08780000       0.98060000
H       -3.33700000       1.18340000      -1.01620000
H       -3.36630000       1.31290000       0.74000000
H        6.92930000       0.98380000       0.88070000
H        6.85160000       0.96030000      -0.87390000
H       -4.64750000      -0.86430000       0.85070000
H       -4.67180000      -0.91520000      -0.90640000
H        8.08620000      -1.22220000      -0.89160000
H        8.19460000      -1.16150000       0.86480000
H       -5.92000000       1.25980000      -0.95180000
H       -5.89090000       1.29620000       0.82980000
H        9.52830000       0.95080000       0.71130000
H        9.41820000       0.88480000      -1.05840000
H       10.29310000      -0.37980000      -0.17630000
H       -9.11060000       0.13780000       0.10140000
