35
Properties=species:S:1:pos:R:3 pbc="F F F"
S        2.47260000       1.97010000      -0.70130000
O       -6.24850000       1.33970000       0.24770000
O       -4.42870000       2.52670000       0.56090000
N        3.83250000       1.08190000      -0.30610000
N        4.47760000      -1.13740000       0.36280000
N       -4.99900000       1.43930000       0.30320000
C        5.16690000       1.62880000      -0.38800000
C        3.60320000      -0.23590000       0.05940000
C        6.06330000       0.79720000       0.52890000
C        2.15940000      -0.53680000       0.07260000
C        5.88170000      -0.69700000       0.25210000
C        1.42340000       0.58410000      -0.32460000
C        0.04110000       0.52740000      -0.38930000
C        1.54940000      -1.73340000       0.41130000
C       -0.59180000      -0.67220000      -0.04950000
C        0.15630000      -1.79300000       0.34720000
C       -2.03540000      -0.76170000      -0.10840000
C       -2.81470000       0.37170000       0.12360000
C       -2.64730000      -1.98170000      -0.39660000
C       -4.20580000       0.28530000       0.06730000
C       -4.03840000      -2.06830000      -0.45250000
C       -4.81770000      -0.93470000      -0.22090000
H        5.19540000       2.67900000      -0.07540000
H        5.52820000       1.57160000      -1.42140000
H        5.80300000       1.00220000       1.57550000
H        7.11150000       1.08350000       0.39160000
H        6.25490000      -0.95030000      -0.74710000
H        6.47710000      -1.26680000       0.97370000
H       -0.50190000       1.40270000      -0.73190000
H        2.12200000      -2.59930000       0.72440000
H       -0.31260000      -2.72680000       0.64700000
H       -2.34860000       1.31830000       0.38460000
H       -2.08260000      -2.88360000      -0.61610000
H       -4.51480000      -3.01650000      -0.68410000
H       -5.89830000      -1.03930000      -0.27470000
