12
Properties=species:S:1:pos:R:3 pbc="F F F"
C       -1.21310000      -0.68840000       0.00000000
C       -1.20280000       0.70640000       0.00010000
C       -0.01030000      -1.39480000       0.00000000
C        0.01040000       1.39480000      -0.00010000
C        1.20280000      -0.70630000       0.00000000
C        1.21310000       0.68840000       0.00000000
H       -2.15770000      -1.22440000       0.00000000
H       -2.13930000       1.25640000       0.00010000
H       -0.01840000      -2.48090000      -0.00010000
H        0.01840000       2.48080000       0.00000000
H        2.13940000      -1.25630000       0.00010000
H        2.15770000       1.22450000       0.00000000
