32
Properties=species:S:1:pos:R:3 pbc="F F F"
O       -2.75290000      -1.69440000       0.33380000
O       -1.10730000       2.87940000      -0.19630000
O       -0.48490000      -2.11850000      -1.07500000
O        3.08080000       1.61300000      -0.87930000
O        3.15110000       0.79070000       1.23590000
N        0.73320000      -1.22290000       0.68500000
C       -1.98120000       0.60180000       0.04550000
C       -1.65830000      -0.81960000       0.59440000
C       -0.81030000       1.58100000       0.30600000
C       -3.24420000       1.13250000       0.76520000
C       -2.29430000       0.55400000      -1.46340000
C       -0.42660000      -1.46980000      -0.03200000
C        2.03000000      -1.71150000       0.27650000
C        2.75340000      -0.72510000      -0.63090000
C        3.01160000       0.60940000       0.03440000
H       -1.53270000      -0.78290000       1.68290000
H        0.11130000       1.25090000      -0.18060000
H       -0.61200000       1.67300000       1.37910000
H       -4.11000000       0.48360000       0.59260000
H       -3.51780000       2.13400000       0.41490000
H       -3.08180000       1.19200000       1.84730000
H       -2.59980000       1.53610000      -1.84210000
H       -3.11910000      -0.12750000      -1.69460000
H       -1.42100000       0.24030000      -2.04450000
H        0.68580000      -0.66460000       1.53220000
H       -2.78920000      -1.87520000      -0.62000000
H        2.60610000      -1.89160000       1.19030000
H        1.90570000      -2.66880000      -0.24100000
H       -0.99190000       2.85770000      -1.16110000
H        2.14760000      -0.55200000      -1.52840000
H        3.71940000      -1.13680000      -0.94120000
H        3.24930000       2.48160000      -0.45570000
