11
Properties=species:S:1:pos:R:3 pbc="F F F"
C        0.00000000      -0.56890000       0.00000000
C       -1.25710000       0.28440000       0.00000000
C        1.25710000       0.28450000       0.00000000
H        0.00000000      -1.21830000       0.88240000
H        0.00000000      -1.21830000      -0.88240000
H       -1.29690000       0.92440000       0.88730000
H       -1.29670000       0.92450000      -0.88720000
H       -2.14750000      -0.35200000      -0.00010000
H        2.14750000      -0.35200000       0.00000000
H        1.29680000       0.92450000       0.88720000
H        1.29680000       0.92450000      -0.88720000
