51
Properties=species:S:1:pos:R:3 pbc="F F F"
O        8.23090000       1.08960000       1.43850000
C       -4.50650000      -0.75290000       0.53270000
C       -5.86520000      -0.00580000       0.43860000
C       -5.72420000       1.48000000       0.71630000
C       -3.37820000       0.02580000      -0.18360000
C       -4.78440000       2.11310000      -0.29860000
C       -3.52650000       1.31550000      -0.57830000
C       -4.74240000      -2.14750000      -0.09740000
C       -4.13920000      -0.94260000       2.02230000
C       -2.13890000      -0.70680000      -0.38440000
C       -2.50080000       2.13310000      -1.32910000
C       -0.92580000      -0.15850000      -0.21170000
C        0.37010000      -0.82240000      -0.39180000
C        0.34890000      -2.27020000      -0.81470000
C        1.49220000      -0.10380000      -0.17050000
C        2.86890000      -0.54770000      -0.28660000
C        3.91310000       0.26240000      -0.03920000
C        5.33450000      -0.08700000      -0.12740000
C        5.68150000      -1.49390000      -0.53910000
C        6.24950000       0.86290000       0.15950000
C        7.74250000       0.75660000       0.14440000
H       -6.59080000      -0.43940000       1.13850000
H       -6.29440000      -0.13310000      -0.56520000
H       -5.34960000       1.64790000       1.73250000
H       -6.70480000       1.96670000       0.66130000
H       -4.51520000       3.11280000       0.06460000
H       -5.31970000       2.25210000      -1.24690000
H       -4.86950000      -2.07800000      -1.18400000
H       -3.91950000      -2.84110000       0.10650000
H       -5.64700000      -2.61300000       0.31260000
H       -4.95350000      -1.42880000       2.57170000
H       -3.24970000      -1.57280000       2.13880000
H       -3.92690000       0.01230000       2.51520000
H       -2.22830000      -1.73050000      -0.72870000
H       -3.00400000       2.79680000      -2.04290000
H       -1.82050000       1.53150000      -1.93700000
H       -1.92990000       2.76390000      -0.64070000
H       -0.85390000       0.85810000       0.16980000
H        1.34080000      -2.71360000      -0.92190000
H       -0.18490000      -2.87810000      -0.07560000
H       -0.14820000      -2.37890000      -1.78520000
H        1.38670000       0.93920000       0.13160000
H        3.04280000      -1.57400000      -0.58540000
H        3.70320000       1.28960000       0.25960000
H        5.26980000      -2.21570000       0.17510000
H        6.75540000      -1.68330000      -0.59010000
H        5.27830000      -1.71400000      -1.53390000
H        5.89390000       1.85510000       0.44060000
H        8.15270000       1.48050000      -0.56650000
H        8.12860000      -0.22760000      -0.12270000
H        7.90990000       0.41120000       2.05730000
