80
Properties=species:S:1:pos:R:3 pbc="F F F"
C       -0.81760000      -1.24750000      -1.61890000
C        4.22580000      -1.04350000       1.66880000
C        2.76890000      -0.05740000      -2.82360000
C        3.87330000      -0.94960000      -2.24260000
C       -1.02330000      -2.67100000      -1.09420000
C        3.02520000      -0.99650000       2.62090000
C        0.46640000      -1.10480000      -2.40450000
C        3.90270000      -1.50750000       0.26050000
C        1.45720000      -0.24130000      -2.10900000
C        4.11100000      -0.68080000      -0.78270000
C       -2.52160000      -2.61110000       0.97440000
C        1.79510000       1.23160000       2.35220000
C       -3.86970000      -2.70520000       1.65300000
C        0.62870000       2.06920000       1.87140000
C       -2.32080000      -2.79060000      -0.34540000
C        1.92460000      -0.09230000       2.13790000
C       -4.57370000      -1.34810000       1.73530000
C        1.02590000       3.19890000       0.91190000
C        0.60410000      -2.03920000      -3.57870000
C        3.40900000      -2.92310000       0.14420000
C       -1.37040000      -2.24740000       1.87530000
C        2.83120000       1.96890000       3.16070000
C       -4.83020000      -0.79070000       0.36310000
C       -0.15560000       4.00240000       0.44370000
C       -4.37130000       0.36450000      -0.15450000
C       -0.53250000       4.27050000      -0.82070000
C       -3.46080000       1.32770000       0.55270000
C       -4.74780000       0.77580000      -1.55260000
C        0.27660000       3.75320000      -1.98060000
C       -1.73070000       5.08470000      -1.21770000
H       -0.81950000      -0.54160000      -0.77810000
H       -1.65720000      -0.95950000      -2.26490000
H        4.97900000      -1.72270000       2.08920000
H        4.70220000      -0.05440000       1.64970000
H        3.05860000       0.99760000      -2.72590000
H        2.68150000      -0.22630000      -3.90070000
H        4.80790000      -0.74510000      -2.77950000
H        3.63590000      -1.99700000      -2.44530000
H       -0.16670000      -2.99980000      -0.49720000
H       -1.07730000      -3.38140000      -1.92880000
H        2.60500000      -2.00330000       2.74190000
H        3.35970000      -0.71960000       3.62610000
H        1.31560000       0.40520000      -1.24370000
H        4.49320000       0.31820000      -0.57420000
H       -4.50520000      -3.41600000       1.10750000
H       -3.75300000      -3.12500000       2.65940000
H        0.11720000       2.48860000       2.74770000
H       -0.10690000       1.42300000       1.37370000
H       -3.18480000      -3.03050000      -0.96340000
H        1.15930000      -0.57980000       1.53950000
H       -5.54260000      -1.48500000       2.23120000
H       -4.00300000      -0.66960000       2.37390000
H        1.58980000       2.76090000       0.08410000
H        1.70630000       3.89370000       1.41870000
H        0.83860000      -3.05180000      -3.23460000
H        1.37380000      -1.75430000      -4.29770000
H       -0.33630000      -2.07520000      -4.14020000
H        3.37590000      -3.29640000      -0.88060000
H        2.39830000      -3.00860000       0.55530000
H        4.06630000      -3.59800000       0.70300000
H       -1.30130000      -2.96820000       2.69740000
H       -0.39590000      -2.23420000       1.38900000
H       -1.53190000      -1.25390000       2.30690000
H        2.34650000       2.51330000       3.97850000
H        3.59790000       1.33840000       3.61370000
H        3.35590000       2.69430000       2.53050000
H       -5.48640000      -1.40270000      -0.25500000
H       -0.76680000       4.41810000       1.24410000
H       -2.56290000       1.50230000      -0.05010000
H       -3.96800000       2.28750000       0.69570000
H       -3.12130000       0.98410000       1.53100000
H       -5.26650000       1.74000000      -1.53680000
H       -3.85080000       0.87350000      -2.17310000
H       -5.40920000       0.05050000      -2.03810000
H       -0.13050000       2.79810000      -2.32770000
H        1.33890000       3.62980000      -1.75760000
H        0.23330000       4.45970000      -2.81760000
H       -1.42310000       5.97410000      -1.77690000
H       -2.29720000       5.41890000      -0.34230000
H       -2.40400000       4.49010000      -1.84370000
